Optimal - objective value 74.00000000
      0 Cmax                   74                       0
      1 C_0       66.9999999999999                       0
      2 C_1                    74                       0
      3 C_2       9.00000000000002                       0
      4 C_3                    18                       0
      5 C_4                    53                       0
      6 C_5       45.9999999999999                       0
      7 C_6                    26                       0
      8 x_0_0                   1                       0
     11 x_1_1                   1                     280
     13 x_2_1                   1                     560
     14 x_3_0                   1                       0
     17 x_4_1                   1                     560
     18 x_5_0                   1                       0
     21 x_6_1                   1                     560
     22 d_0_1_0                 1                       0
     24 d_0_2_0                 1                       0
     25 d_0_2_1                 1                       0
     27 d_0_3_1                 1                       0
     28 d_0_4_0                 1                       0
     31 d_0_5_1                 1                       0
     32 d_0_6_0                 1                       0
     33 d_0_6_1                 1                       0
     40 d_1_5_0                 1                       0
     44 d_2_3_0                 1                       0
     45 d_2_3_1                 1                       0
     47 d_2_4_1                 1                       0
     48 d_2_5_0                 1                       0
     49 d_2_5_1                 1                       0
     51 d_2_6_1                 1                     280
     52 d_3_4_0                 1                       0
     54 d_3_5_0                 1                       0
     58 d_4_5_0                 1                       0
     59 d_4_5_1                 1                       0
     60 d_4_6_0                 1                       0
     62 d_5_6_0                 1                       0
     63 d_5_6_1                 1                       0
